35 35
22
3 3 14 3
3 4 14 31
3 5 14 18
6 3 8 3
3 7 8 28
3 8 14 23
9 3 8 0
3 10 11 6
3 12 14 6
3 19 11 16
3 22 8 6
4 3 31 15
4 4 31 0
4 5 31 10
4 6 31 4
4 7 0 28
4 8 0 20
4 12 4 23
4 17 31 18
4 20 0 0
4 23 4 0
14 35 17 0
